&CONTROL
  calculation='relax',
  prefix='calc',
  pseudo_dir='/home/alatimer/bin/psp/esp_psp_w_gbrvRu/',
  outdir='.',
  tprnfor=.true.,
/
&SYSTEM
  ibrav=0,
  celldm(1)=1.8897261245650618d0,
  nat=49,
  ntyp=2,
  ecutwfc=40.4242561699d0,
  ecutrho=404.242561699d0,
  nbnd=295,
  occupations='smearing',
  smearing='fd',
  degauss=0.00734986475817d0,
  nspin=2,
  starting_magnetization(1)=0.25d0,
  starting_magnetization(2)=0.5d0,
  input_dft='BEEF',
/
&ELECTRONS
  diagonalization='david',
  conv_thr=7.34986475817e-07,
  mixing_beta=0.1d0,
  mixing_ndim=10,
  electron_maxstep=200,
  startingpot='file',
  conv_thr=7.34986475817e-07,
/
&IONS
  ion_dynamics='ase3',
/
CELL_PARAMETERS
    6.590708031734300d0     0.000000000000000d0     0.000000000000000d0
    0.000000000000000d0     5.950228934058494d0     0.000000000000000d0
    0.000000000000000d0     0.000000000000000d0    30.195235107139208d0
ATOMIC_SPECIES
Ti1 47.88d0 Ti.UPF
O1 15.9994d0 O.UPF
ATOMIC_POSITIONS {crystal}
Ti1      0.250000000000000d0     0.125000000000000d0     0.087914087118376d0
O1       0.250000000000000d0     0.375000000000000d0     0.130355716324089d0
Ti1      0.250000000000000d0     0.375000000000000d0     0.197048988839608d0
O1       0.055554279445252d0     0.125000000000000d0     0.197048988839608d0
Ti1      0.231806065982961d0     0.122959316163422d0     0.304617346379084d0
O1       0.252357307447899d0     0.366269566914742d0     0.351358193369373d0
Ti1      0.245275623544065d0     0.365412699248317d0     0.412151447023775d0
O1       0.063895000647613d0     0.120825857908284d0     0.421081762940852d0
Ti1      0.250000000000000d0     0.625000000000000d0     0.087914087118376d0
O1       0.250000000000000d0     0.875000000000000d0     0.130355716324089d0
Ti1      0.250000000000000d0     0.875000000000000d0     0.197048988839608d0
O1       0.055554279445252d0     0.625000000000000d0     0.197048988839608d0
Ti1      0.232429302554658d0     0.623068193742499d0     0.305063754590237d0
O1       0.251923581957259d0     0.874835734416754d0     0.351321242434254d0
Ti1      0.245203099766261d0     0.876021521410512d0     0.412179312773803d0
O1       0.055720798122144d0     0.619979951164677d0     0.412357487123223d0
O1       0.250000000000000d0     0.375000000000000d0     0.045472457912663d0
Ti1      0.749999999999999d0     0.375000000000000d0     0.087914087118376d0
O1       0.749999999999999d0     0.375000000000000d0     0.154607359633895d0
O1       0.944445720554747d0     0.125000000000000d0     0.087914087118376d0
O1       0.555554279445252d0     0.125000000000000d0     0.087914087118376d0
Ti1      0.749999999999999d0     0.125000000000000d0     0.197048988839608d0
O1       0.250263403152149d0     0.374217705475928d0     0.265703908404641d0
O1       0.749999999999999d0     0.375000000000000d0     0.239490618045322d0
O1       0.444445720554747d0     0.125000000000000d0     0.197048988839609d0
Ti1      0.736947305898603d0     0.370378230328083d0     0.311177071649103d0
O1       0.749009082032186d0     0.362402647151659d0     0.372663160318810d0
O1       0.950757064510895d0     0.122101932351191d0     0.306572198908922d0
O1       0.555436639226099d0     0.121884950097057d0     0.306624125104662d0
Ti1      0.740503989172296d0     0.117805373835835d0     0.422254714735802d0
O1       0.756905680016809d0     0.370663006578619d0     0.457227327710756d0
O1       0.436786380072903d0     0.120948960459747d0     0.422711383632255d0
O1       0.250000000000000d0     0.875000000000000d0     0.045472457912663d0
Ti1      0.749999999999999d0     0.875000000000000d0     0.087914087118376d0
O1       0.749999999999999d0     0.875000000000000d0     0.154607359633895d0
O1       0.944445720554747d0     0.625000000000000d0     0.087914087118376d0
O1       0.555554279445252d0     0.625000000000000d0     0.087914087118376d0
Ti1      0.749999999999999d0     0.625000000000000d0     0.197048988839608d0
O1       0.250237210907489d0     0.871233284569543d0     0.265721969539842d0
O1       0.749999999999999d0     0.875000000000000d0     0.239490618045322d0
O1       0.444445720554747d0     0.625000000000000d0     0.197048988839609d0
Ti1      0.737150729977463d0     0.871820075097849d0     0.311131597178889d0
O1       0.749032355866694d0     0.877202136947009d0     0.372622717336585d0
O1       0.950742408332457d0     0.621987607619929d0     0.307646447444678d0
O1       0.555412499048638d0     0.621567117991876d0     0.307844794200258d0
Ti1      0.775014446361043d0     0.617651387110020d0     0.421486220007411d0
O1       0.756828358575046d0     0.866791923703190d0     0.457209221923190d0
O1       0.459511610075952d0     0.620753751895042d0     0.411379041261151d0
O1       0.362004842467958d0     0.621729201753092d0     0.456245720651092d0
K_POINTS automatic
6 6 1 0 0 0
