&CONTROL
  calculation='relax',
  prefix='calc',
  pseudo_dir='/home/alatimer/bin/psp/esp_psp_w_gbrvRu/',
  outdir='.',
  tprnfor=.true.,
/
&SYSTEM
  ibrav=0,
  celldm(1)=1.8897261245650618d0,
  nat=50,
  ntyp=3,
  ecutwfc=40.4242561699d0,
  ecutrho=404.242561699d0,
  nbnd=295,
  occupations='smearing',
  smearing='fd',
  degauss=0.00734986475817d0,
  nspin=2,
  starting_magnetization(1)=0.25d0,
  starting_magnetization(2)=0.5d0,
  starting_magnetization(3)=0.0d0,
  input_dft='BEEF',
/
&ELECTRONS
  diagonalization='david',
  conv_thr=7.34986475817e-07,
  mixing_beta=0.1d0,
  mixing_ndim=10,
  electron_maxstep=200,
  startingpot='file',
  conv_thr=7.34986475817e-07,
/
&IONS
  ion_dynamics='ase3',
/
CELL_PARAMETERS
    6.590708031734300d0     0.000000000000000d0     0.000000000000000d0
    0.000000000000000d0     5.950228934058494d0     0.000000000000000d0
    0.000000000000000d0     0.000000000000000d0    30.195235107139208d0
ATOMIC_SPECIES
Ti1 47.88d0 Ti.UPF
O1 15.9994d0 O.UPF
H1 1.00794d0 H.UPF
ATOMIC_POSITIONS {crystal}
Ti1      0.250000000000000d0     0.125000000000000d0     0.087914087118376d0
O1       0.250000000000000d0     0.375000000000000d0     0.130355716324089d0
Ti1      0.250000000000000d0     0.375000000000000d0     0.197048988839608d0
O1       0.055554279445252d0     0.125000000000000d0     0.197048988839608d0
Ti1      0.249185029478928d0     0.134333952934368d0     0.305640973014533d0
O1       0.248932350052414d0     0.375000007673248d0     0.346198821043471d0
Ti1      0.248430570494237d0     0.375000006258394d0     0.432474380494532d0
O1       0.056387483918320d0     0.121540064072711d0     0.421819797298973d0
Ti1      0.250000000000000d0     0.625000000000000d0     0.087914087118376d0
O1       0.250000000000000d0     0.875000000000000d0     0.130355716324089d0
Ti1      0.250000000000000d0     0.875000000000000d0     0.197048988839608d0
O1       0.055554279445252d0     0.625000000000000d0     0.197048988839608d0
Ti1      0.249185042701407d0     0.615665874662606d0     0.305641014971096d0
O1       0.248774911835079d0     0.875000017502296d0     0.348978750310835d0
Ti1      0.248324894845800d0     0.875000021120659d0     0.408762169773568d0
O1       0.056387458069815d0     0.628459846760851d0     0.421819781932475d0
O1       0.250000000000000d0     0.375000000000000d0     0.045472457912663d0
Ti1      0.749999999999999d0     0.375000000000000d0     0.087914087118376d0
O1       0.749999999999999d0     0.375000000000000d0     0.154607359633895d0
O1       0.944445720554747d0     0.125000000000000d0     0.087914087118376d0
O1       0.555554279445252d0     0.125000000000000d0     0.087914087118376d0
Ti1      0.749999999999999d0     0.125000000000000d0     0.197048988839608d0
O1       0.249504697802809d0     0.375000002317096d0     0.262595285840919d0
O1       0.749999999999999d0     0.375000000000000d0     0.239490618045322d0
O1       0.444445720554747d0     0.125000000000000d0     0.197048988839609d0
Ti1      0.749148695575384d0     0.375000026707916d0     0.312717258109665d0
O1       0.749308799762049d0     0.375000014539164d0     0.373423500163104d0
O1       0.945783907214815d0     0.124290871784240d0     0.307006381981326d0
O1       0.552661064762926d0     0.124418727065816d0     0.306924247560311d0
Ti1      0.749366496494555d0     0.124062754664108d0     0.423572404607515d0
O1       0.741717484213114d0     0.374999996147819d0     0.459020699717382d0
O1       0.435735690090282d0     0.121418625838927d0     0.420338121278522d0
O1       0.250000000000000d0     0.875000000000000d0     0.045472457912663d0
Ti1      0.749999999999999d0     0.875000000000000d0     0.087914087118376d0
O1       0.749999999999999d0     0.875000000000000d0     0.154607359633895d0
O1       0.944445720554747d0     0.625000000000000d0     0.087914087118376d0
O1       0.555554279445252d0     0.625000000000000d0     0.087914087118376d0
Ti1      0.749999999999999d0     0.625000000000000d0     0.197048988839608d0
O1       0.249509130997901d0     0.875000052798974d0     0.262935079821566d0
O1       0.749999999999999d0     0.875000000000000d0     0.239490618045322d0
O1       0.444445720554747d0     0.625000000000000d0     0.197048988839609d0
Ti1      0.749354849935857d0     0.874999995856891d0     0.312108376081230d0
O1       0.749225696970869d0     0.875000011706019d0     0.373426391443492d0
O1       0.945783893460822d0     0.625709145150617d0     0.307006382343900d0
O1       0.552661070608717d0     0.625581307875846d0     0.306924249439945d0
Ti1      0.749366498392006d0     0.625937197086557d0     0.423572402553474d0
O1       0.741998111367521d0     0.874999984849678d0     0.459074735312785d0
O1       0.435735668335062d0     0.628581459783842d0     0.420338128659203d0
O1       0.262767785965032d0     0.374999994858684d0     0.491780630031533d0
H1       0.394603999459338d0     0.375000130641518d0     0.507788787559858d0
K_POINTS automatic
6 6 1 0 0 0
