&CONTROL
  calculation='relax',
  prefix='calc',
  pseudo_dir='/home/alatimer/bin/psp/esp_psp_w_gbrvRu/',
  outdir='.',
  tprnfor=.true.,
/
&SYSTEM
  ibrav=0,
  celldm(1)=1.8897261245650618d0,
  nat=51,
  ntyp=3,
  ecutwfc=40.4242561699d0,
  ecutrho=404.242561699d0,
  nbnd=300,
  occupations='smearing',
  smearing='fd',
  degauss=0.00734986475817d0,
  nspin=2,
  starting_magnetization(1)=0.25d0,
  starting_magnetization(2)=0.5d0,
  starting_magnetization(3)=0.6d0,
  input_dft='BEEF',
/
&ELECTRONS
  diagonalization='david',
  conv_thr=7.34986475817e-07,
  mixing_beta=0.1d0,
  mixing_ndim=10,
  electron_maxstep=200,
  startingpot='file',
  conv_thr=7.34986475817e-07,
/
&IONS
  ion_dynamics='ase3',
/
CELL_PARAMETERS
    6.590708031734300d0     0.000000000000000d0     0.000000000000000d0
    0.000000000000000d0     5.950228934058494d0     0.000000000000000d0
    0.000000000000000d0     0.000000000000000d0    30.195235107139208d0
ATOMIC_SPECIES
Ti1 47.88d0 Ti.UPF
O1 15.9994d0 O.UPF
N1 14.0067d0 N.UPF
ATOMIC_POSITIONS {crystal}
Ti1      0.250000000000000d0     0.125000000000000d0     0.087914087118376d0
O1       0.250000000000000d0     0.375000000000000d0     0.130355716324089d0
Ti1      0.250000000000000d0     0.375000000000000d0     0.197048988839608d0
O1       0.055554279445252d0     0.125000000000000d0     0.197048988839608d0
Ti1      0.231850516786315d0     0.122937582719205d0     0.304595579279999d0
O1       0.252081301121593d0     0.366992699649055d0     0.351352685443213d0
Ti1      0.252867820704170d0     0.371353534135292d0     0.411183683921578d0
O1       0.067363252413595d0     0.122086738727200d0     0.422588399048963d0
Ti1      0.250000000000000d0     0.625000000000000d0     0.087914087118376d0
O1       0.250000000000000d0     0.875000000000000d0     0.130355716324089d0
Ti1      0.250000000000000d0     0.875000000000000d0     0.197048988839608d0
O1       0.055554279445252d0     0.625000000000000d0     0.197048988839608d0
Ti1      0.232437709674189d0     0.623042175572246d0     0.305075849691833d0
O1       0.251499636182619d0     0.876040468824320d0     0.351339847390035d0
Ti1      0.251967656135849d0     0.872520395270188d0     0.411209830016198d0
O1       0.062568770387091d0     0.622195043980059d0     0.416894230793497d0
O1       0.250000000000000d0     0.375000000000000d0     0.045472457912663d0
Ti1      0.749999999999999d0     0.375000000000000d0     0.087914087118376d0
O1       0.749999999999999d0     0.375000000000000d0     0.154607359633895d0
O1       0.944445720554747d0     0.125000000000000d0     0.087914087118376d0
O1       0.555554279445252d0     0.125000000000000d0     0.087914087118376d0
Ti1      0.749999999999999d0     0.125000000000000d0     0.197048988839608d0
O1       0.250623175998901d0     0.374557706799153d0     0.265930554136620d0
O1       0.749999999999999d0     0.375000000000000d0     0.239490618045322d0
O1       0.444445720554747d0     0.125000000000000d0     0.197048988839609d0
Ti1      0.737480776667861d0     0.371020939344659d0     0.312095814810183d0
O1       0.751869905600341d0     0.363673790542359d0     0.373425223826688d0
O1       0.951197812449673d0     0.122486816119076d0     0.306963555598980d0
O1       0.556252172921393d0     0.121832709709723d0     0.307556137864696d0
Ti1      0.747788976658858d0     0.122384675111463d0     0.423239964720218d0
O1       0.757937334125397d0     0.373367351724497d0     0.458606786669495d0
O1       0.441715559255763d0     0.122119626572332d0     0.422753038352670d0
O1       0.250000000000000d0     0.875000000000000d0     0.045472457912663d0
Ti1      0.749999999999999d0     0.875000000000000d0     0.087914087118376d0
O1       0.749999999999999d0     0.875000000000000d0     0.154607359633895d0
O1       0.944445720554747d0     0.625000000000000d0     0.087914087118376d0
O1       0.555554279445252d0     0.625000000000000d0     0.087914087118376d0
Ti1      0.749999999999999d0     0.625000000000000d0     0.197048988839608d0
O1       0.250729770504184d0     0.871432388431111d0     0.265918017465127d0
O1       0.749999999999999d0     0.875000000000000d0     0.239490618045322d0
O1       0.444445720554747d0     0.625000000000000d0     0.197048988839609d0
Ti1      0.737555820607715d0     0.872008942459569d0     0.312108436492688d0
O1       0.751830947949100d0     0.875721578004342d0     0.373414706006995d0
O1       0.951545141419430d0     0.622234676384745d0     0.308154272324952d0
O1       0.556095373779685d0     0.621910266429022d0     0.308445645790283d0
Ti1      0.761079212250708d0     0.622466169828465d0     0.422536416147180d0
O1       0.758401558752602d0     0.869342162615791d0     0.458632883245619d0
O1       0.449955214902147d0     0.622651060047102d0     0.415023999120230d0
O1       0.342120276809764d0     0.622893208458308d0     0.482503657709673d0
N1       0.364457024605719d0     0.616229449383096d0     0.561849624239400d0
N1       0.320536818564230d0     0.620468105144830d0     0.525284945283444d0
K_POINTS automatic
6 6 1 0 0 0
