&CONTROL
  calculation='relax',
  prefix='calc',
  pseudo_dir='/home/alatimer/bin/psp/esp_psp_w_gbrvRu/',
  outdir='.',
  tprnfor=.true.,
/
&SYSTEM
  ibrav=0,
  celldm(1)=1.8897261245650618d0,
  nat=54,
  ntyp=4,
  ecutwfc=40.4242561699d0,
  ecutrho=404.242561699d0,
  nbnd=299,
  occupations='smearing',
  smearing='fd',
  degauss=0.00734986475817d0,
  nspin=2,
  starting_magnetization(1)=0.25d0,
  starting_magnetization(2)=0.5d0,
  starting_magnetization(3)=0.75d0,
  starting_magnetization(4)=0.0d0,
  input_dft='BEEF',
/
&ELECTRONS
  diagonalization='david',
  conv_thr=7.34986475817e-07,
  mixing_beta=0.1d0,
  mixing_ndim=10,
  electron_maxstep=200,
  startingpot='file',
  conv_thr=7.34986475817e-07,
/
&IONS
  ion_dynamics='ase3',
/
CELL_PARAMETERS
    6.590708031734300d0     0.000000000000000d0     0.000000000000000d0
    0.000000000000000d0     5.950228934058494d0     0.000000000000000d0
    0.000000000000000d0     0.000000000000000d0    30.195235107139208d0
ATOMIC_SPECIES
Ti1 47.88d0 Ti.UPF
O1 15.9994d0 O.UPF
C1 12.011d0 C.UPF
H1 1.00794d0 H.UPF
ATOMIC_POSITIONS {crystal}
Ti1      0.250000000000000d0     0.125000000000000d0     0.087914087118376d0
O1       0.250000000000000d0     0.375000000000000d0     0.130355716324089d0
Ti1      0.250000000000000d0     0.375000000000000d0     0.197048988839608d0
O1       0.055554279445252d0     0.125000000000000d0     0.197048988839608d0
Ti1      0.266935371146522d0     0.127014197403701d0     0.304064633045779d0
O1       0.245231471945920d0     0.379347551038032d0     0.350887379246173d0
Ti1      0.236621070988360d0     0.381166260782007d0     0.412873996780523d0
O1       0.056284254228008d0     0.130047558104815d0     0.420584701716804d0
Ti1      0.250000000000000d0     0.625000000000000d0     0.087914087118376d0
O1       0.250000000000000d0     0.875000000000000d0     0.130355716324089d0
Ti1      0.250000000000000d0     0.875000000000000d0     0.197048988839608d0
O1       0.055554279445252d0     0.625000000000000d0     0.197048988839608d0
Ti1      0.267156966947464d0     0.623721665029263d0     0.304517362094283d0
O1       0.244785174099232d0     0.878129224423924d0     0.349279081100599d0
Ti1      0.250235740861297d0     0.881161674517559d0     0.408832721358757d0
O1       0.056439214645721d0     0.631881391834079d0     0.420620781903868d0
O1       0.250000000000000d0     0.375000000000000d0     0.045472457912663d0
Ti1      0.749999999999999d0     0.375000000000000d0     0.087914087118376d0
O1       0.749999999999999d0     0.375000000000000d0     0.154607359633895d0
O1       0.944445720554747d0     0.125000000000000d0     0.087914087118376d0
O1       0.555554279445252d0     0.125000000000000d0     0.087914087118376d0
Ti1      0.749999999999999d0     0.125000000000000d0     0.197048988839608d0
O1       0.248639489607979d0     0.376321282580936d0     0.265067200703925d0
O1       0.749999999999999d0     0.375000000000000d0     0.239490618045322d0
O1       0.444445720554747d0     0.125000000000000d0     0.197048988839609d0
Ti1      0.761042544636718d0     0.376186356068760d0     0.311220385940199d0
O1       0.749410302792962d0     0.374384394093971d0     0.373157324219407d0
O1       0.942144912821001d0     0.126290198947635d0     0.307141331027551d0
O1       0.548215772810765d0     0.126308413085321d0     0.306945555205154d0
Ti1      0.742561848455024d0     0.137939912311864d0     0.421749870558476d0
O1       0.735689915769039d0     0.381562164265957d0     0.458600154290471d0
O1       0.436467121774375d0     0.124667543765825d0     0.418332742285524d0
O1       0.250000000000000d0     0.875000000000000d0     0.045472457912663d0
Ti1      0.749999999999999d0     0.875000000000000d0     0.087914087118376d0
O1       0.749999999999999d0     0.875000000000000d0     0.154607359633895d0
O1       0.944445720554747d0     0.625000000000000d0     0.087914087118376d0
O1       0.555554279445252d0     0.625000000000000d0     0.087914087118376d0
Ti1      0.749999999999999d0     0.625000000000000d0     0.197048988839608d0
O1       0.249115236390814d0     0.876166881579278d0     0.265162422644423d0
O1       0.749999999999999d0     0.875000000000000d0     0.239490618045322d0
O1       0.444445720554747d0     0.625000000000000d0     0.197048988839609d0
Ti1      0.761955177768270d0     0.876254295903447d0     0.310878850400094d0
O1       0.749532458388608d0     0.874589228118079d0     0.372900557459156d0
O1       0.941825965155631d0     0.625949214255228d0     0.307104918988588d0
O1       0.548310033258921d0     0.625726054753238d0     0.306944010258723d0
Ti1      0.742514071332547d0     0.640221248596181d0     0.421912305467509d0
O1       0.744248702051701d0     0.882494912067733d0     0.458151493865027d0
O1       0.436119613603066d0     0.637602869749231d0     0.418621646989766d0
C1       0.160638430310662d0     0.374254013567085d0     0.526792003663890d0
O1       0.287028068027157d0     0.375700376300366d0     0.488083662973325d0
H1       0.004704750338982d0     0.373098504834713d0     0.516319653403672d0
H1       0.430232987989592d0     0.374576377057760d0     0.495256110368137d0
H1       0.189328090918428d0     0.223966746737713d0     0.546575903184052d0
H1       0.187255345513340d0     0.524267888969200d0     0.546771282893867d0
K_POINTS automatic
6 6 1 0 0 0
