&CONTROL
  calculation='relax',
  prefix='calc',
  pseudo_dir='/home/alatimer/bin/psp/esp_psp_w_gbrvRu/',
  outdir='.',
  tprnfor=.true.,
/
&SYSTEM
  ibrav=0,
  celldm(1)=1.8897261245650618d0,
  nat=54,
  ntyp=4,
  ecutwfc=40.4242561699d0,
  ecutrho=404.242561699d0,
  nbnd=299,
  occupations='smearing',
  smearing='fd',
  degauss=0.00734986475817d0,
  nspin=2,
  starting_magnetization(1)=0.25d0,
  starting_magnetization(2)=0.5d0,
  starting_magnetization(3)=0.75d0,
  starting_magnetization(4)=0.0d0,
  input_dft='BEEF',
/
&ELECTRONS
  diagonalization='david',
  conv_thr=7.34986475817e-07,
  mixing_beta=0.1d0,
  mixing_ndim=10,
  electron_maxstep=200,
  startingpot='file',
  conv_thr=7.34986475817e-07,
/
&IONS
  ion_dynamics='ase3',
/
CELL_PARAMETERS
    6.590708031734300d0     0.000000000000000d0     0.000000000000000d0
    0.000000000000000d0     5.950228934058494d0     0.000000000000000d0
    0.000000000000000d0     0.000000000000000d0    30.195235107139208d0
ATOMIC_SPECIES
Ti1 47.88d0 Ti.UPF
O1 15.9994d0 O.UPF
C1 12.011d0 C.UPF
H1 1.00794d0 H.UPF
ATOMIC_POSITIONS {crystal}
Ti1      0.250000000000000d0     0.125000000000000d0     0.087914087118376d0
O1       0.250000000000000d0     0.375000000000000d0     0.130355716324089d0
Ti1      0.250000000000000d0     0.375000000000000d0     0.197048988839608d0
O1       0.055554279445252d0     0.125000000000000d0     0.197048988839608d0
Ti1      0.248946070831395d0     0.153513591356218d0     0.308457578061536d0
O1       0.252610542117279d0     0.379959938978470d0     0.347392240530652d0
Ti1      0.266712460341011d0     0.384845966881422d0     0.432095862992082d0
O1       0.072853828211069d0     0.127726312543986d0     0.423046003967138d0
Ti1      0.250000000000000d0     0.625000000000000d0     0.087914087118376d0
O1       0.250000000000000d0     0.875000000000000d0     0.130355716324089d0
Ti1      0.250000000000000d0     0.875000000000000d0     0.197048988839608d0
O1       0.055554279445252d0     0.625000000000000d0     0.197048988839608d0
Ti1      0.247864871670162d0     0.635048281358958d0     0.303249272144612d0
O1       0.253056457744886d0     0.882553583637425d0     0.349092945803037d0
Ti1      0.260123927705055d0     0.883297371623748d0     0.408882097803006d0
O1       0.070333951731958d0     0.638399442059189d0     0.421650237088026d0
O1       0.250000000000000d0     0.375000000000000d0     0.045472457912663d0
Ti1      0.749999999999999d0     0.375000000000000d0     0.087914087118376d0
O1       0.749999999999999d0     0.375000000000000d0     0.154607359633895d0
O1       0.944445720554747d0     0.125000000000000d0     0.087914087118376d0
O1       0.555554279445252d0     0.125000000000000d0     0.087914087118376d0
Ti1      0.749999999999999d0     0.125000000000000d0     0.197048988839608d0
O1       0.253139001998423d0     0.382381538663783d0     0.263045928098356d0
O1       0.749999999999999d0     0.375000000000000d0     0.239490618045322d0
O1       0.444445720554747d0     0.125000000000000d0     0.197048988839609d0
Ti1      0.749602641095840d0     0.380906257425650d0     0.313136217991289d0
O1       0.760159427925903d0     0.380098515414568d0     0.374052873602369d0
O1       0.950004162876885d0     0.129655975422391d0     0.306868773514592d0
O1       0.558229426462102d0     0.130162822510252d0     0.307882504518034d0
Ti1      0.760432305417220d0     0.134057489749945d0     0.424443143949740d0
O1       0.758084285129674d0     0.383794505656356d0     0.459511633379577d0
O1       0.452445806885556d0     0.125177093501159d0     0.420957875654007d0
O1       0.250000000000000d0     0.875000000000000d0     0.045472457912663d0
Ti1      0.749999999999999d0     0.875000000000000d0     0.087914087118376d0
O1       0.749999999999999d0     0.875000000000000d0     0.154607359633895d0
O1       0.944445720554747d0     0.625000000000000d0     0.087914087118376d0
O1       0.555554279445252d0     0.625000000000000d0     0.087914087118376d0
Ti1      0.749999999999999d0     0.625000000000000d0     0.197048988839608d0
O1       0.252843964187985d0     0.874514247738637d0     0.262840214189540d0
O1       0.749999999999999d0     0.875000000000000d0     0.239490618045322d0
O1       0.444445720554747d0     0.625000000000000d0     0.197048988839609d0
Ti1      0.751426892175541d0     0.881657415871665d0     0.312719351164889d0
O1       0.760275762262991d0     0.880553421789701d0     0.373991103636402d0
O1       0.950792236398004d0     0.631097351336698d0     0.306824006273971d0
O1       0.558072920303435d0     0.630938090389767d0     0.307901149449620d0
Ti1      0.767565312475069d0     0.634714841066155d0     0.423942216063700d0
O1       0.761619066313745d0     0.882355935392536d0     0.459721467204950d0
O1       0.449483314782835d0     0.637677010975515d0     0.421589302162265d0
O1       0.264424588077177d0     0.378700852676073d0     0.491368968630231d0
C1       0.412643036198220d0     0.724783423977159d0     0.537563029966927d0
H1       0.501273209315879d0     0.827792447371340d0     0.516066190483982d0
H1       0.505053559631521d0     0.636448064182801d0     0.562413313572133d0
H1       0.350881684957989d0     0.571850344865919d0     0.515743015383443d0
H1       0.279048751068539d0     0.800819619097568d0     0.551240548020508d0
K_POINTS automatic
6 6 1 0 0 0
