&CONTROL
  calculation='relax',
  prefix='calc',
  pseudo_dir='/home/alatimer/bin/psp/esp_psp_w_gbrvRu/',
  outdir='.',
  tefield=.true.,
  dipfield=.true.,
  tprnfor=.true.,
/
&SYSTEM
  ibrav=0,
  celldm(1)=1.8897261245650618d0,
  nat=48,
  ntyp=2,
  ecutwfc=40.4242561699d0,
  ecutrho=404.242561699d0,
  nbnd=292,
  occupations='smearing',
  smearing='fd',
  degauss=0.00734986475817d0,
  nspin=2,
  starting_magnetization(1)=0.25d0,
  starting_magnetization(2)=0.5d0,
  input_dft='BEEF',
  ensemble_energies=.true.,
  print_ensemble_energies=.true.,
  edir=3,
  emaxpos=0.750358283774d0,
  eopreg=0.025d0,
  eamp=0.0d0,
/
&ELECTRONS
  diagonalization='david',
  conv_thr=7.34986475817e-07,
  mixing_ndim=10,
  electron_maxstep=300,
  mixing_beta=0.05d0,
  conv_thr=7.34986475817e-07,
/
&IONS
  ion_dynamics='ase3',
/
CELL_PARAMETERS
    6.590708031734300d0     0.000000000000000d0     0.000000000000000d0
    0.000000000000000d0     5.950228934058494d0     0.000000000000000d0
    0.000000000000000d0     0.000000000000000d0    30.195235107139208d0
ATOMIC_SPECIES
Ti1 47.88d0 Ti.UPF
O1 15.9994d0 O.UPF
ATOMIC_POSITIONS {crystal}
Ti1      0.250000000000000d0     0.125000000000000d0     0.087914087118376d0
O1       0.250000000000000d0     0.375000000000000d0     0.130355716324089d0
Ti1      0.250000000000000d0     0.375000000000000d0     0.197048988839608d0
O1       0.055554279445252d0     0.125000000000000d0     0.197048988839608d0
Ti1      0.250000000894247d0     0.124999999826966d0     0.305281039148462d0
O1       0.249999999756976d0     0.374999999001927d0     0.350294638095489d0
Ti1      0.249999997988299d0     0.375000000118343d0     0.411801043194866d0
O1       0.064960027223712d0     0.124999992480183d0     0.416340880899446d0
Ti1      0.250000000000000d0     0.625000000000000d0     0.087914087118376d0
O1       0.250000000000000d0     0.875000000000000d0     0.130355716324089d0
Ti1      0.250000000000000d0     0.875000000000000d0     0.197048988839608d0
O1       0.055554279445252d0     0.625000000000000d0     0.197048988839608d0
Ti1      0.249999999084334d0     0.625000000095508d0     0.305281039170117d0
O1       0.250000000276585d0     0.874999999166182d0     0.350294637909144d0
Ti1      0.250000000034943d0     0.874999998142726d0     0.411801042745606d0
O1       0.064960026993959d0     0.624999991847364d0     0.416340880821444d0
O1       0.250000000000000d0     0.375000000000000d0     0.045472457912663d0
Ti1      0.749999999999999d0     0.375000000000000d0     0.087914087118376d0
O1       0.749999999999999d0     0.375000000000000d0     0.154607359633895d0
O1       0.944445720554747d0     0.125000000000000d0     0.087914087118376d0
O1       0.555554279445252d0     0.125000000000000d0     0.087914087118376d0
Ti1      0.749999999999999d0     0.125000000000000d0     0.197048988839608d0
O1       0.250000000004991d0     0.375000000506403d0     0.264438975463246d0
O1       0.749999999999999d0     0.375000000000000d0     0.239490618045322d0
O1       0.444445720554747d0     0.125000000000000d0     0.197048988839609d0
Ti1      0.749999999177534d0     0.374999998837032d0     0.307417678123676d0
O1       0.750000000649756d0     0.375000000528301d0     0.370787993914696d0
O1       0.946140721013600d0     0.125000000694224d0     0.306089437535774d0
O1       0.553859279909741d0     0.125000000436548d0     0.306089437446257d0
Ti1      0.750000001407758d0     0.125000000431119d0     0.419507612630018d0
O1       0.749999999848719d0     0.374999999087877d0     0.455244109635343d0
O1       0.435039972422119d0     0.125000007807841d0     0.416340880993315d0
O1       0.250000000000000d0     0.875000000000000d0     0.045472457912663d0
Ti1      0.749999999999999d0     0.875000000000000d0     0.087914087118376d0
O1       0.749999999999999d0     0.875000000000000d0     0.154607359633895d0
O1       0.944445720554747d0     0.625000000000000d0     0.087914087118376d0
O1       0.555554279445252d0     0.625000000000000d0     0.087914087118376d0
Ti1      0.749999999999999d0     0.625000000000000d0     0.197048988839608d0
O1       0.250000000439116d0     0.874999999513318d0     0.264438975384800d0
O1       0.749999999999999d0     0.875000000000000d0     0.239490618045322d0
O1       0.444445720554747d0     0.625000000000000d0     0.197048988839609d0
Ti1      0.750000000732929d0     0.875000000714667d0     0.307417678486890d0
O1       0.750000000103842d0     0.874999999703368d0     0.370787994126867d0
O1       0.946140721164129d0     0.624999999817985d0     0.306089437517001d0
O1       0.553859278207098d0     0.624999999039375d0     0.306089437470507d0
Ti1      0.750000000807285d0     0.625000002000465d0     0.419507612795780d0
O1       0.750000001013035d0     0.875000000759484d0     0.455244109554093d0
O1       0.435039973453647d0     0.625000008060987d0     0.416340880998162d0
K_POINTS automatic
6 6 1 0 0 0
